p cnf 134 2243
-1 -77 0
-3 -78 0
-1 -79 0
-3 -79 0
-3 -77 0
-3 -80 0
-1 -81 0
-3 -81 0
-3 -83 0
-1 -84 0
-3 -84 0
-3 -86 0
-1 -87 0
-3 -87 0
-3 -88 0
-1 -89 0
-3 -89 0
-3 -90 0
-1 -92 0
-3 -92 0
-3 -93 0
-1 -94 0
-3 -94 0
-3 -95 0
-1 -97 0
-3 -97 0
-3 -99 0
-1 -100 0
-3 -100 0
-3 -101 0
-1 -102 0
-3 -102 0
-3 -103 0
-1 -104 0
-3 -104 0
-3 -105 0
-1 -107 0
-3 -107 0
-3 -108 0
-1 -109 0
-3 -109 0
-3 -110 0
-1 -111 0
-3 -111 0
-3 -112 0
-1 -113 0
-3 -113 0
-3 -114 0
-1 -115 0
-3 -115 0
-3 -116 0
-1 -117 0
-3 -117 0
-3 -118 0
-1 -119 0
-3 -119 0
-3 -120 0
-1 -121 0
-3 -121 0
-3 -122 0
-1 -123 0
-3 -123 0
-3 -124 0
-1 -126 0
-3 -126 0
-3 -127 0
-1 -128 0
-3 -128 0
-3 -129 0
-1 -130 0
-3 -130 0
-3 -131 0
-1 -132 0
-3 -132 0
-3 -133 0
-1 -135 0
-3 -135 0
-3 -136 0
-1 -139 0
-3 -139 0
-3 -140 0
-1 -141 0
-3 -141 0
-3 -142 0
-1 -143 0
-3 -143 0
-3 -144 0
-1 -146 0
-3 -146 0
-3 -149 0
-1 -150 0
-3 -150 0
-3 -151 0
-1 -85 0
-3 -85 0
-3 -91 0
-1 -98 0
-3 -98 0
-3 -125 0
-1 -96 0
-3 -96 0
-2 -128 0
-4 -77 0
-5 -77 0
-6 -77 0
-8 -77 0
-9 -77 0
-11 -77 0
-12 -77 0
-13 -77 0
-14 -77 0
-15 -77 0
-16 -77 0
-17 -77 0
-18 -77 0
-19 -77 0
-20 -77 0
-21 -77 0
-22 -77 0
-23 -77 0
-24 -77 0
-25 -77 0
-26 -77 0
-27 -77 0
-28 -77 0
-29 -77 0
-30 -77 0
-32 -77 0
-33 -77 0
-34 -77 0
-35 -77 0
-36 -77 0
-37 -77 0
-38 -77 0
-39 -77 0
-40 -77 0
-41 -77 0
-42 -77 0
-43 -77 0
-44 -77 0
-45 -77 0
-46 -77 0
-47 -77 0
-48 -77 0
-49 -77 0
-50 -77 0
-51 -77 0
-52 -77 0
-53 -77 0
-54 -77 0
-55 -77 0
-56 -77 0
-57 -77 0
-58 -77 0
-60 -77 0
-61 -77 0
-64 -77 0
-65 -77 0
-66 -77 0
-67 -77 0
-68 -77 0
-69 -77 0
-71 -77 0
-74 -77 0
-75 -77 0
-76 -77 0
-2 -77 0
-64 -78 0
-2 -79 0
-2 -80 0
-2 -81 0
-2 -83 0
-2 -84 0
-2 -86 0
-2 -87 0
-2 -88 0
-2 -89 0
-2 -90 0
-2 -92 0
-2 -93 0
-2 -94 0
-2 -95 0
-2 -97 0
-2 -99 0
-2 -100 0
-2 -101 0
-2 -102 0
-2 -103 0
-2 -104 0
-2 -105 0
-2 -107 0
-2 -108 0
-2 -109 0
-2 -110 0
-2 -111 0
-2 -112 0
-2 -113 0
-2 -114 0
-2 -115 0
-2 -116 0
-2 -117 0
-2 -118 0
-2 -119 0
-2 -120 0
-2 -121 0
-2 -122 0
-2 -123 0
-2 -124 0
-2 -126 0
-2 -127 0
-2 -129 0
-2 -130 0
-2 -131 0
-2 -132 0
-2 -133 0
-2 -135 0
-2 -136 0
-2 -139 0
-2 -140 0
-2 -141 0
-2 -142 0
-2 -143 0
-2 -144 0
-2 -146 0
-2 -149 0
-2 -150 0
-2 -151 0
-2 -91 0
-2 -98 0
-2 -125 0
-2 -96 0
-2 -85 0
-2 -78 0
-1 -105 0
-4 -78 0
-5 -78 0
-6 -78 0
-8 -78 0
-9 -78 0
-11 -78 0
-12 -78 0
-13 -78 0
-14 -78 0
-15 -78 0
-16 -78 0
-17 -78 0
-18 -78 0
-19 -78 0
-20 -78 0
-21 -78 0
-22 -78 0
-23 -78 0
-24 -78 0
-25 -78 0
-26 -78 0
-27 -78 0
-28 -78 0
-29 -78 0
-30 -78 0
-32 -78 0
-33 -78 0
-34 -78 0
-35 -78 0
-36 -78 0
-37 -78 0
-38 -78 0
-39 -78 0
-40 -78 0
-41 -78 0
-42 -78 0
-43 -78 0
-44 -78 0
-45 -78 0
-46 -78 0
-47 -78 0
-48 -78 0
-49 -78 0
-50 -78 0
-51 -78 0
-52 -78 0
-53 -78 0
-54 -78 0
-55 -78 0
-56 -78 0
-57 -78 0
-58 -78 0
-60 -78 0
-61 -78 0
-65 -78 0
-66 -78 0
-67 -78 0
-68 -78 0
-69 -78 0
-71 -78 0
-74 -78 0
-75 -78 0
-76 -78 0
-15 -79 0
-4 -80 0
-4 -81 0
-4 -83 0
-4 -84 0
-4 -86 0
-4 -87 0
-4 -88 0
-4 -89 0
-4 -90 0
-4 -92 0
-4 -93 0
-4 -94 0
-4 -95 0
-4 -97 0
-4 -99 0
-4 -100 0
-4 -101 0
-4 -102 0
-4 -103 0
-4 -104 0
-4 -105 0
-4 -107 0
-4 -108 0
-4 -109 0
-4 -110 0
-4 -111 0
-4 -112 0
-4 -113 0
-4 -114 0
-4 -115 0
-4 -116 0
-4 -117 0
-4 -118 0
-4 -119 0
-4 -120 0
-4 -121 0
-4 -122 0
-4 -123 0
-4 -124 0
-4 -126 0
-4 -127 0
-4 -128 0
-4 -129 0
-4 -130 0
-4 -131 0
-4 -132 0
-4 -133 0
-4 -135 0
-4 -136 0
-4 -139 0
-4 -140 0
-4 -141 0
-4 -142 0
-4 -143 0
-4 -144 0
-4 -146 0
-4 -149 0
-4 -150 0
-4 -151 0
-4 -85 0
-4 -91 0
-4 -98 0
-4 -125 0
-4 -96 0
-4 -79 0
-5 -129 0
-1 -80 0
-6 -80 0
-8 -80 0
-9 -80 0
-11 -80 0
-12 -80 0
-13 -80 0
-14 -80 0
-15 -80 0
-16 -80 0
-17 -79 0
-18 -79 0
-19 -79 0
-20 -79 0
-21 -79 0
-22 -79 0
-23 -79 0
-24 -79 0
-25 -79 0
-26 -79 0
-27 -79 0
-28 -79 0
-29 -79 0
-30 -79 0
-32 -79 0
-33 -79 0
-34 -79 0
-35 -79 0
-36 -79 0
-37 -79 0
-38 -79 0
-39 -79 0
-40 -79 0
-41 -79 0
-42 -79 0
-43 -79 0
-44 -79 0
-45 -79 0
-46 -79 0
-47 -79 0
-48 -79 0
-49 -79 0
-50 -79 0
-51 -79 0
-52 -79 0
-53 -79 0
-54 -79 0
-55 -79 0
-56 -79 0
-57 -79 0
-58 -79 0
-60 -79 0
-61 -79 0
-64 -79 0
-65 -79 0
-66 -79 0
-67 -79 0
-68 -79 0
-69 -79 0
-71 -79 0
-74 -79 0
-75 -79 0
-76 -79 0
-38 -80 0
-17 -81 0
-6 -83 0
-6 -84 0
-6 -86 0
-6 -87 0
-6 -88 0
-6 -89 0
-6 -90 0
-6 -92 0
-6 -93 0
-6 -94 0
-6 -95 0
-6 -97 0
-6 -99 0
-6 -100 0
-6 -101 0
-6 -102 0
-6 -103 0
-6 -104 0
-6 -105 0
-6 -107 0
-6 -108 0
-6 -109 0
-6 -110 0
-6 -111 0
-6 -112 0
-6 -113 0
-6 -114 0
-6 -115 0
-6 -116 0
-6 -117 0
-6 -118 0
-6 -119 0
-6 -120 0
-6 -121 0
-6 -122 0
-6 -123 0
-6 -124 0
-6 -126 0
-6 -127 0
-6 -128 0
-6 -129 0
-6 -130 0
-5 -131 0
-5 -132 0
-5 -133 0
-5 -135 0
-5 -136 0
-5 -139 0
-5 -140 0
-5 -141 0
-5 -142 0
-5 -143 0
-5 -144 0
-5 -146 0
-5 -149 0
-5 -150 0
-5 -151 0
-5 -85 0
-5 -91 0
-5 -98 0
-5 -125 0
-5 -96 0
-5 -104 0
-8 -83 0
-9 -83 0
-11 -83 0
-12 -83 0
-13 -83 0
-14 -83 0
-15 -83 0
-16 -83 0
-17 -83 0
-18 -83 0
-19 -81 0
-20 -81 0
-21 -81 0
-22 -81 0
-23 -81 0
-24 -81 0
-25 -81 0
-26 -81 0
-27 -81 0
-28 -81 0
-29 -81 0
-30 -81 0
-32 -81 0
-33 -81 0
-34 -81 0
-35 -81 0
-36 -81 0
-37 -81 0
-38 -81 0
-39 -81 0
-40 -80 0
-41 -80 0
-42 -80 0
-43 -80 0
-44 -80 0
-45 -80 0
-46 -80 0
-47 -80 0
-48 -80 0
-49 -80 0
-50 -80 0
-51 -80 0
-52 -80 0
-53 -80 0
-54 -80 0
-55 -80 0
-56 -80 0
-57 -80 0
-58 -80 0
-60 -80 0
-61 -80 0
-64 -80 0
-65 -80 0
-66 -80 0
-67 -80 0
-68 -80 0
-69 -80 0
-71 -80 0
-74 -80 0
-75 -80 0
-76 -80 0
-50 -81 0
-40 -83 0
-19 -84 0
-8 -86 0
-8 -87 0
-8 -88 0
-8 -89 0
-8 -90 0
-8 -92 0
-8 -93 0
-8 -94 0
-8 -95 0
-8 -97 0
-8 -99 0
-8 -100 0
-8 -101 0
-8 -102 0
-8 -103 0
-8 -104 0
-8 -105 0
-8 -107 0
-8 -108 0
-8 -109 0
-8 -110 0
-8 -111 0
-8 -112 0
-8 -113 0
-8 -114 0
-8 -115 0
-8 -116 0
-8 -117 0
-8 -118 0
-8 -119 0
-8 -120 0
-8 -121 0
-8 -122 0
-8 -123 0
-8 -124 0
-8 -126 0
-8 -127 0
-8 -128 0
-8 -129 0
-8 -130 0
-8 -131 0
-6 -132 0
-6 -133 0
-6 -135 0
-6 -136 0
-6 -139 0
-6 -140 0
-6 -141 0
-6 -142 0
-6 -143 0
-6 -144 0
-6 -146 0
-6 -149 0
-6 -150 0
-6 -151 0
-6 -85 0
-6 -91 0
-6 -98 0
-6 -125 0
-6 -96 0
-6 -131 0
-6 -81 0
-5 -79 0
-6 -79 0
-9 -129 0
-1 -86 0
-11 -86 0
-12 -86 0
-13 -86 0
-14 -86 0
-15 -86 0
-16 -86 0
-17 -86 0
-18 -86 0
-19 -86 0
-20 -86 0
-21 -84 0
-22 -84 0
-23 -84 0
-24 -84 0
-25 -84 0
-26 -84 0
-27 -84 0
-28 -84 0
-29 -84 0
-30 -84 0
-32 -84 0
-33 -84 0
-34 -84 0
-35 -84 0
-36 -84 0
-37 -84 0
-38 -84 0
-39 -84 0
-40 -84 0
-41 -84 0
-42 -83 0
-43 -83 0
-44 -83 0
-45 -83 0
-46 -83 0
-47 -83 0
-48 -83 0
-49 -83 0
-50 -83 0
-51 -83 0
-52 -81 0
-53 -81 0
-54 -81 0
-55 -81 0
-56 -81 0
-57 -81 0
-58 -81 0
-60 -81 0
-61 -81 0
-64 -81 0
-65 -81 0
-66 -81 0
-67 -81 0
-68 -81 0
-69 -81 0
-71 -81 0
-74 -81 0
-75 -81 0
-76 -81 0
-53 -83 0
-52 -84 0
-42 -86 0
-21 -87 0
-11 -88 0
-11 -89 0
-11 -90 0
-11 -92 0
-11 -93 0
-11 -94 0
-11 -95 0
-11 -97 0
-11 -99 0
-11 -100 0
-11 -101 0
-11 -102 0
-11 -103 0
-11 -104 0
-11 -105 0
-11 -107 0
-11 -108 0
-11 -109 0
-11 -110 0
-11 -111 0
-11 -112 0
-11 -113 0
-11 -114 0
-11 -115 0
-11 -116 0
-11 -117 0
-11 -118 0
-11 -119 0
-11 -120 0
-11 -121 0
-11 -122 0
-11 -123 0
-11 -124 0
-11 -126 0
-11 -127 0
-11 -128 0
-11 -129 0
-11 -130 0
-9 -131 0
-9 -132 0
-8 -133 0
-8 -135 0
-8 -136 0
-8 -139 0
-8 -140 0
-8 -141 0
-8 -142 0
-8 -143 0
-8 -144 0
-8 -146 0
-8 -149 0
-8 -150 0
-8 -151 0
-8 -85 0
-8 -91 0
-8 -98 0
-8 -125 0
-8 -96 0
-8 -132 0
-11 -149 0
-1 -131 0
-12 -88 0
-13 -88 0
-14 -88 0
-15 -88 0
-16 -88 0
-17 -88 0
-18 -88 0
-19 -88 0
-20 -88 0
-21 -88 0
-22 -88 0
-23 -87 0
-24 -87 0
-25 -87 0
-26 -87 0
-27 -87 0
-28 -87 0
-29 -87 0
-30 -87 0
-32 -87 0
-33 -87 0
-34 -87 0
-35 -87 0
-36 -87 0
-37 -87 0
-38 -87 0
-39 -87 0
-40 -87 0
-41 -87 0
-42 -87 0
-43 -87 0
-44 -86 0
-45 -86 0
-46 -86 0
-47 -86 0
-48 -86 0
-49 -86 0
-50 -86 0
-51 -86 0
-52 -86 0
-53 -86 0
-54 -84 0
-55 -83 0
-56 -83 0
-57 -83 0
-58 -83 0
-60 -83 0
-61 -83 0
-64 -83 0
-65 -83 0
-66 -83 0
-67 -83 0
-68 -83 0
-69 -83 0
-71 -83 0
-74 -83 0
-75 -83 0
-76 -83 0
-20 -83 0
-18 -80 0
-18 -81 0
-12 -81 0
-13 -81 0
-14 -81 0
-15 -81 0
-16 -81 0
-44 -81 0
-45 -81 0
-46 -81 0
-47 -81 0
-48 -81 0
-49 -81 0
-51 -81 0
-5 -81 0
-9 -81 0
-11 -79 0
-11 -81 0
-43 -81 0
-42 -81 0
-41 -81 0
-52 -83 0
-54 -83 0
-67 -86 0
-54 -87 0
-44 -88 0
-23 -89 0
-12 -90 0
-12 -92 0
-12 -93 0
-12 -94 0
-12 -95 0
-12 -97 0
-12 -99 0
-12 -100 0
-12 -101 0
-12 -102 0
-12 -103 0
-12 -104 0
-12 -105 0
-12 -107 0
-12 -108 0
-12 -109 0
-12 -110 0
-12 -111 0
-12 -112 0
-12 -113 0
-12 -114 0
-12 -115 0
-12 -116 0
-12 -117 0
-12 -118 0
-12 -119 0
-12 -120 0
-12 -121 0
-12 -122 0
-12 -123 0
-12 -124 0
-12 -126 0
-12 -127 0
-12 -128 0
-12 -129 0
-12 -130 0
-12 -131 0
-12 -132 0
-12 -133 0
-9 -135 0
-9 -136 0
-9 -139 0
-9 -140 0
-9 -141 0
-9 -142 0
-9 -143 0
-9 -144 0
-9 -146 0
-9 -149 0
-9 -150 0
-9 -151 0
-9 -85 0
-9 -91 0
-9 -98 0
-9 -125 0
-9 -96 0
-11 -139 0
-11 -135 0
-11 -136 0
-11 -140 0
-11 -141 0
-11 -142 0
-11 -143 0
-11 -144 0
-11 -146 0
-11 -150 0
-11 -151 0
-11 -85 0
-11 -91 0
-11 -98 0
-11 -125 0
-11 -96 0
-12 -149 0
-1 -136 0
-13 -90 0
-14 -90 0
-15 -90 0
-16 -90 0
-17 -90 0
-18 -90 0
-19 -90 0
-20 -90 0
-21 -90 0
-22 -90 0
-23 -90 0
-24 -90 0
-25 -89 0
-26 -89 0
-27 -89 0
-28 -89 0
-29 -89 0
-30 -89 0
-32 -89 0
-33 -89 0
-34 -89 0
-35 -89 0
-36 -89 0
-37 -89 0
-38 -89 0
-39 -89 0
-40 -89 0
-41 -89 0
-42 -89 0
-43 -89 0
-44 -89 0
-45 -89 0
-46 -88 0
-47 -88 0
-48 -88 0
-49 -88 0
-50 -88 0
-51 -88 0
-52 -88 0
-53 -88 0
-54 -88 0
-55 -88 0
-56 -84 0
-57 -84 0
-58 -84 0
-60 -84 0
-61 -84 0
-64 -84 0
-65 -84 0
-66 -84 0
-67 -84 0
-68 -84 0
-69 -84 0
-71 -84 0
-74 -84 0
-75 -84 0
-76 -84 0
-53 -84 0
-46 -87 0
-46 -89 0
-46 -90 0
-25 -92 0
-13 -93 0
-13 -94 0
-13 -95 0
-13 -97 0
-13 -99 0
-13 -100 0
-13 -101 0
-13 -102 0
-13 -103 0
-13 -104 0
-13 -105 0
-13 -107 0
-13 -108 0
-13 -109 0
-13 -110 0
-13 -111 0
-13 -112 0
-13 -113 0
-13 -114 0
-13 -115 0
-13 -116 0
-13 -117 0
-13 -118 0
-13 -119 0
-13 -120 0
-13 -121 0
-13 -122 0
-13 -123 0
-13 -124 0
-13 -126 0
-13 -127 0
-13 -128 0
-13 -129 0
-13 -130 0
-13 -131 0
-13 -132 0
-13 -133 0
-13 -135 0
-13 -136 0
-13 -139 0
-13 -140 0
-13 -141 0
-13 -142 0
-13 -143 0
-13 -144 0
-13 -146 0
-13 -149 0
-13 -150 0
-12 -151 0
-12 -85 0
-12 -91 0
-12 -98 0
-12 -125 0
-12 -96 0
-12 -139 0
-14 -135 0
-15 -93 0
-16 -93 0
-17 -93 0
-18 -93 0
-19 -93 0
-20 -93 0
-21 -93 0
-22 -93 0
-23 -93 0
-24 -93 0
-25 -93 0
-26 -93 0
-27 -92 0
-28 -92 0
-29 -92 0
-30 -92 0
-32 -92 0
-33 -92 0
-34 -92 0
-35 -92 0
-36 -92 0
-37 -92 0
-38 -92 0
-39 -92 0
-40 -92 0
-41 -92 0
-42 -92 0
-43 -92 0
-44 -92 0
-45 -92 0
-46 -92 0
-47 -92 0
-48 -89 0
-49 -89 0
-50 -89 0
-51 -89 0
-52 -89 0
-53 -89 0
-54 -89 0
-55 -89 0
-56 -87 0
-57 -87 0
-58 -87 0
-60 -87 0
-61 -87 0
-64 -87 0
-65 -87 0
-66 -87 0
-67 -87 0
-68 -87 0
-69 -86 0
-71 -86 0
-74 -86 0
-75 -86 0
-76 -86 0
-76 -87 0
-69 -88 0
-56 -88 0
-57 -88 0
-58 -88 0
-60 -88 0
-61 -88 0
-64 -88 0
-65 -88 0
-66 -88 0
-67 -88 0
-68 -88 0
-71 -88 0
-74 -88 0
-75 -88 0
-76 -88 0
-23 -88 0
-24 -80 0
-24 -83 0
-24 -86 0
-26 -86 0
-43 -86 0
-25 -86 0
-27 -86 0
-28 -86 0
-29 -86 0
-30 -86 0
-32 -86 0
-33 -86 0
-34 -86 0
-35 -86 0
-36 -86 0
-37 -86 0
-38 -86 0
-39 -86 0
-40 -86 0
-41 -86 0
-5 -83 0
-5 -80 0
-5 -84 0
-5 -86 0
-9 -86 0
-9 -79 0
-9 -84 0
-9 -87 0
-9 -88 0
-9 -89 0
-9 -90 0
-9 -92 0
-9 -93 0
-9 -94 0
-9 -95 0
-9 -97 0
-9 -99 0
-9 -100 0
-9 -101 0
-9 -102 0
-9 -103 0
-9 -104 0
-9 -105 0
-9 -107 0
-9 -108 0
-9 -109 0
-9 -110 0
-9 -111 0
-9 -112 0
-9 -113 0
-9 -114 0
-9 -115 0
-9 -116 0
-9 -117 0
-9 -118 0
-9 -119 0
-9 -120 0
-9 -121 0
-9 -122 0
-9 -123 0
-9 -124 0
-9 -126 0
-9 -127 0
-9 -128 0
-9 -130 0
-9 -133 0
-11 -132 0
-11 -131 0
-11 -133 0
-11 -84 0
-11 -87 0
-13 -125 0
-1 -151 0
-13 -151 0
-13 -85 0
-13 -91 0
-13 -98 0
-13 -96 0
-14 -139 0
-14 -94 0
-15 -94 0
-16 -94 0
-17 -94 0
-18 -94 0
-19 -94 0
-20 -94 0
-21 -94 0
-22 -94 0
-23 -94 0
-24 -94 0
-25 -94 0
-26 -94 0
-27 -94 0
-28 -93 0
-29 -93 0
-30 -93 0
-32 -93 0
-33 -93 0
-34 -93 0
-35 -93 0
-36 -93 0
-37 -93 0
-38 -93 0
-39 -93 0
-40 -93 0
-41 -93 0
-42 -93 0
-43 -93 0
-44 -93 0
-45 -93 0
-46 -93 0
-47 -93 0
-48 -90 0
-49 -90 0
-50 -90 0
-51 -90 0
-52 -90 0
-53 -90 0
-54 -90 0
-55 -90 0
-56 -90 0
-57 -89 0
-58 -89 0
-60 -89 0
-61 -89 0
-64 -89 0
-65 -89 0
-66 -89 0
-67 -89 0
-68 -89 0
-69 -89 0
-71 -89 0
-74 -89 0
-75 -89 0
-76 -89 0
-56 -89 0
-61 -86 0
-54 -86 0
-55 -86 0
-56 -86 0
-57 -86 0
-58 -86 0
-60 -86 0
-64 -86 0
-65 -86 0
-66 -86 0
-68 -86 0
-21 -86 0
-22 -80 0
-22 -83 0
-22 -86 0
-23 -86 0
-76 -92 0
-15 -92 0
-15 -95 0
-15 -97 0
-15 -99 0
-15 -100 0
-15 -101 0
-15 -102 0
-15 -103 0
-15 -104 0
-15 -105 0
-15 -107 0
-15 -108 0
-15 -109 0
-15 -110 0
-15 -111 0
-15 -112 0
-15 -113 0
-15 -114 0
-15 -115 0
-15 -116 0
-15 -117 0
-15 -118 0
-15 -119 0
-15 -120 0
-15 -121 0
-15 -122 0
-15 -123 0
-15 -124 0
-15 -126 0
-15 -127 0
-15 -128 0
-15 -129 0
-15 -130 0
-15 -131 0
-15 -132 0
-15 -133 0
-15 -135 0
-15 -136 0
-15 -139 0
-15 -140 0
-14 -141 0
-14 -142 0
-14 -143 0
-14 -144 0
-14 -146 0
-14 -149 0
-14 -150 0
-14 -151 0
-14 -85 0
-14 -91 0
-14 -98 0
-14 -125 0
-14 -96 0
-15 -141 0
-12 -142 0
-12 -143 0
-12 -144 0
-12 -146 0
-12 -150 0
-12 -136 0
-14 -136 0
-14 -95 0
-16 -95 0
-17 -95 0
-18 -95 0
-19 -95 0
-20 -95 0
-21 -95 0
-22 -95 0
-23 -95 0
-24 -95 0
-25 -95 0
-26 -95 0
-27 -95 0
-28 -95 0
-29 -94 0
-30 -94 0
-32 -94 0
-33 -94 0
-34 -94 0
-35 -94 0
-36 -94 0
-37 -94 0
-38 -94 0
-39 -94 0
-40 -94 0
-41 -94 0
-42 -94 0
-43 -94 0
-44 -94 0
-45 -94 0
-46 -94 0
-47 -94 0
-48 -94 0
-49 -93 0
-50 -93 0
-51 -93 0
-52 -93 0
-53 -93 0
-54 -93 0
-55 -93 0
-56 -93 0
-57 -93 0
-58 -90 0
-60 -90 0
-61 -90 0
-64 -90 0
-65 -90 0
-66 -90 0
-67 -90 0
-68 -90 0
-69 -90 0
-71 -90 0
-74 -90 0
-75 -90 0
-76 -90 0
-5 -90 0
-5 -87 0
-5 -88 0
-5 -89 0
-71 -92 0
-5 -93 0
-5 -94 0
-5 -95 0
-5 -97 0
-5 -99 0
-5 -100 0
-5 -101 0
-5 -102 0
-5 -103 0
-5 -105 0
-5 -107 0
-5 -108 0
-5 -109 0
-5 -110 0
-5 -111 0
-5 -112 0
-5 -113 0
-5 -114 0
-5 -115 0
-5 -116 0
-5 -117 0
-5 -118 0
-5 -119 0
-5 -120 0
-5 -121 0
-5 -122 0
-5 -123 0
-5 -124 0
-5 -126 0
-5 -127 0
-5 -128 0
-5 -130 0
-5 -92 0
-13 -87 0
-12 -84 0
-8 -84 0
-13 -84 0
-13 -92 0
-14 -92 0
-16 -92 0
-17 -92 0
-18 -92 0
-19 -92 0
-20 -92 0
-21 -92 0
-22 -92 0
-23 -92 0
-24 -92 0
-26 -92 0
-48 -92 0
-49 -92 0
-50 -92 0
-51 -92 0
-52 -92 0
-53 -92 0
-54 -92 0
-55 -92 0
-56 -92 0
-57 -92 0
-58 -92 0
-60 -92 0
-61 -92 0
-64 -92 0
-65 -92 0
-66 -92 0
-67 -92 0
-68 -92 0
-69 -92 0
-74 -87 0
-75 -87 0
-71 -87 0
-69 -87 0
-69 -93 0
-58 -94 0
-49 -95 0
-29 -97 0
-16 -99 0
-16 -100 0
-16 -101 0
-16 -102 0
-16 -103 0
-16 -104 0
-16 -105 0
-16 -107 0
-16 -108 0
-16 -109 0
-16 -110 0
-16 -111 0
-16 -112 0
-16 -113 0
-16 -114 0
-16 -115 0
-16 -116 0
-16 -117 0
-16 -118 0
-16 -119 0
-16 -120 0
-16 -121 0
-16 -122 0
-16 -123 0
-16 -124 0
-16 -126 0
-16 -127 0
-16 -128 0
-16 -129 0
-16 -130 0
-16 -131 0
-16 -132 0
-16 -133 0
-16 -135 0
-16 -136 0
-16 -139 0
-16 -140 0
-16 -141 0
-16 -142 0
-15 -143 0
-15 -144 0
-15 -146 0
-15 -149 0
-15 -150 0
-15 -151 0
-15 -85 0
-15 -91 0
-15 -98 0
-15 -125 0
-15 -96 0
-15 -142 0
-15 -84 0
-14 -89 0
-12 -87 0
-15 -87 0
-16 -87 0
-17 -87 0
-18 -87 0
-19 -87 0
-20 -87 0
-22 -87 0
-47 -87 0
-48 -84 0
-44 -84 0
-44 -87 0
-44 -95 0
-30 -97 0
-17 -99 0
-17 -100 0
-17 -101 0
-17 -102 0
-17 -103 0
-17 -104 0
-17 -105 0
-17 -107 0
-17 -108 0
-17 -109 0
-17 -110 0
-17 -111 0
-17 -112 0
-17 -113 0
-17 -114 0
-17 -115 0
-17 -116 0
-17 -117 0
-17 -118 0
-17 -119 0
-17 -120 0
-17 -121 0
-17 -122 0
-17 -123 0
-17 -124 0
-17 -126 0
-17 -127 0
-17 -128 0
-17 -129 0
-17 -130 0
-17 -131 0
-17 -132 0
-17 -133 0
-17 -135 0
-17 -136 0
-17 -139 0
-17 -140 0
-17 -141 0
-17 -142 0
-17 -143 0
-16 -144 0
-16 -146 0
-16 -149 0
-16 -150 0
-16 -151 0
-16 -85 0
-16 -91 0
-16 -98 0
-16 -125 0
-16 -96 0
-17 -150 0
-17 -144 0
-17 -146 0
-17 -149 0
-18 -149 0
-19 -99 0
-20 -99 0
-21 -99 0
-22 -99 0
-23 -99 0
-24 -99 0
-25 -99 0
-26 -99 0
-27 -99 0
-28 -99 0
-29 -99 0
-30 -99 0
-32 -99 0
-33 -97 0
-34 -97 0
-35 -97 0
-36 -97 0
-37 -97 0
-38 -97 0
-39 -97 0
-40 -97 0
-41 -97 0
-41 -99 0
-33 -100 0
-19 -100 0
-20 -100 0
-21 -100 0
-22 -100 0
-23 -100 0
-24 -100 0
-25 -100 0
-26 -100 0
-27 -100 0
-28 -100 0
-29 -100 0
-30 -100 0
-32 -100 0
-34 -100 0
-35 -100 0
-36 -100 0
-37 -100 0
-38 -100 0
-39 -100 0
-40 -100 0
-41 -100 0
-41 -101 0
-19 -102 0
-20 -102 0
-21 -102 0
-22 -102 0
-23 -102 0
-24 -102 0
-25 -102 0
-26 -102 0
-27 -102 0
-28 -102 0
-29 -102 0
-30 -102 0
-32 -102 0
-33 -102 0
-34 -102 0
-35 -102 0
-36 -102 0
-37 -102 0
-38 -102 0
-39 -102 0
-40 -102 0
-41 -102 0
-41 -103 0
-19 -104 0
-20 -104 0
-21 -104 0
-22 -104 0
-23 -104 0
-24 -104 0
-25 -104 0
-26 -104 0
-27 -104 0
-28 -104 0
-29 -104 0
-30 -104 0
-32 -104 0
-33 -104 0
-34 -104 0
-35 -104 0
-36 -104 0
-37 -104 0
-38 -104 0
-39 -104 0
-40 -104 0
-41 -104 0
-41 -105 0
-19 -107 0
-20 -107 0
-21 -107 0
-22 -107 0
-23 -107 0
-24 -107 0
-25 -107 0
-26 -107 0
-27 -107 0
-28 -107 0
-29 -107 0
-30 -107 0
-32 -107 0
-33 -107 0
-34 -107 0
-35 -107 0
-36 -107 0
-37 -107 0
-38 -107 0
-39 -107 0
-40 -107 0
-41 -107 0
-41 -108 0
-19 -109 0
-20 -109 0
-21 -109 0
-22 -109 0
-23 -109 0
-24 -109 0
-25 -109 0
-26 -109 0
-27 -109 0
-28 -109 0
-29 -109 0
-30 -109 0
-32 -109 0
-33 -109 0
-34 -109 0
-35 -109 0
-36 -109 0
-37 -109 0
-38 -109 0
-39 -109 0
-40 -109 0
-41 -109 0
-41 -110 0
-19 -111 0
-20 -111 0
-21 -111 0
-22 -111 0
-23 -111 0
-24 -111 0
-25 -111 0
-26 -111 0
-27 -111 0
-28 -111 0
-29 -111 0
-30 -111 0
-32 -111 0
-33 -111 0
-34 -111 0
-35 -111 0
-36 -111 0
-37 -111 0
-38 -111 0
-39 -111 0
-40 -111 0
-41 -111 0
-41 -112 0
-19 -113 0
-20 -113 0
-21 -113 0
-22 -113 0
-23 -113 0
-24 -113 0
-25 -113 0
-26 -113 0
-27 -113 0
-28 -113 0
-29 -113 0
-30 -113 0
-32 -113 0
-33 -113 0
-34 -113 0
-35 -113 0
-36 -113 0
-37 -113 0
-38 -113 0
-39 -113 0
-40 -113 0
-41 -113 0
-41 -114 0
-19 -115 0
-20 -115 0
-21 -115 0
-22 -115 0
-23 -115 0
-24 -115 0
-25 -115 0
-26 -115 0
-27 -115 0
-28 -115 0
-29 -115 0
-30 -115 0
-32 -115 0
-33 -115 0
-34 -115 0
-35 -115 0
-36 -115 0
-37 -115 0
-38 -115 0
-39 -115 0
-40 -115 0
-41 -115 0
-41 -116 0
-19 -117 0
-20 -117 0
-21 -117 0
-22 -117 0
-23 -117 0
-24 -117 0
-25 -117 0
-26 -117 0
-27 -117 0
-28 -117 0
-29 -117 0
-30 -117 0
-32 -117 0
-33 -117 0
-34 -117 0
-35 -117 0
-36 -117 0
-37 -117 0
-38 -117 0
-39 -117 0
-40 -117 0
-41 -117 0
-41 -118 0
-19 -119 0
-20 -119 0
-21 -119 0
-22 -119 0
-23 -119 0
-24 -119 0
-25 -119 0
-26 -119 0
-27 -119 0
-28 -119 0
-29 -119 0
-30 -119 0
-32 -119 0
-33 -119 0
-34 -119 0
-35 -119 0
-36 -119 0
-37 -119 0
-38 -119 0
-39 -119 0
-40 -119 0
-41 -119 0
-41 -120 0
-19 -121 0
-20 -121 0
-21 -121 0
-22 -121 0
-23 -121 0
-24 -121 0
-25 -121 0
-26 -121 0
-27 -121 0
-28 -121 0
-29 -121 0
-30 -121 0
-32 -121 0
-33 -121 0
-34 -121 0
-35 -121 0
-36 -121 0
-37 -121 0
-38 -121 0
-39 -121 0
-40 -121 0
-41 -121 0
-41 -122 0
-19 -123 0
-20 -123 0
-21 -123 0
-22 -123 0
-23 -123 0
-24 -123 0
-25 -123 0
-26 -123 0
-27 -123 0
-28 -123 0
-29 -123 0
-30 -123 0
-32 -123 0
-33 -123 0
-34 -123 0
-35 -123 0
-36 -123 0
-37 -123 0
-38 -123 0
-39 -123 0
-40 -123 0
-41 -123 0
-41 -124 0
-19 -126 0
-20 -126 0
-21 -126 0
-22 -126 0
-23 -126 0
-24 -126 0
-25 -126 0
-26 -126 0
-27 -126 0
-28 -126 0
-29 -126 0
-30 -126 0
-32 -126 0
-33 -126 0
-34 -126 0
-35 -126 0
-36 -126 0
-37 -126 0
-38 -126 0
-39 -126 0
-40 -126 0
-41 -126 0
-41 -127 0
-19 -128 0
-20 -128 0
-21 -128 0
-22 -128 0
-23 -128 0
-24 -128 0
-25 -128 0
-26 -128 0
-27 -128 0
-28 -128 0
-29 -128 0
-30 -128 0
-32 -128 0
-33 -128 0
-34 -128 0
-35 -128 0
-36 -128 0
-37 -128 0
-38 -128 0
-39 -128 0
-40 -128 0
-41 -128 0
-41 -129 0
-19 -130 0
-20 -130 0
-21 -130 0
-22 -130 0
-23 -130 0
-24 -130 0
-25 -130 0
-26 -130 0
-27 -130 0
-28 -130 0
-29 -130 0
-30 -130 0
-32 -130 0
-33 -130 0
-34 -130 0
-35 -130 0
-36 -130 0
-37 -130 0
-38 -130 0
-39 -130 0
-40 -130 0
-41 -130 0
-41 -131 0
-19 -132 0
-20 -132 0
-21 -132 0
-22 -132 0
-23 -132 0
-24 -132 0
-25 -132 0
-26 -132 0
-27 -132 0
-28 -132 0
-29 -132 0
-30 -132 0
-32 -132 0
-33 -132 0
-34 -132 0
-35 -132 0
-36 -132 0
-37 -132 0
-38 -132 0
-39 -132 0
-40 -132 0
-41 -132 0
-41 -133 0
-19 -135 0
-19 -136 0
-19 -139 0
-19 -140 0
-19 -141 0
-19 -142 0
-19 -143 0
-19 -144 0
-19 -146 0
-19 -149 0
-20 -149 0
-21 -135 0
-21 -136 0
-21 -139 0
-21 -140 0
-21 -141 0
-21 -142 0
-21 -143 0
-21 -144 0
-21 -146 0
-21 -149 0
-22 -149 0
-23 -135 0
-23 -136 0
-23 -139 0
-23 -140 0
-23 -141 0
-23 -142 0
-23 -143 0
-23 -144 0
-23 -146 0
-23 -149 0
-24 -149 0
-25 -135 0
-25 -136 0
-25 -139 0
-25 -140 0
-25 -141 0
-25 -142 0
-25 -143 0
-25 -144 0
-25 -146 0
-25 -149 0
-26 -149 0
-27 -135 0
-28 -135 0
-28 -136 0
-27 -139 0
-28 -139 0
-28 -140 0
-27 -141 0
-28 -141 0
-28 -142 0
-27 -143 0
-28 -143 0
-28 -144 0
-27 -146 0
-28 -146 0
-28 -149 0
-27 -149 0
-29 -136 0
-29 -135 0
-29 -139 0
-29 -140 0
-29 -141 0
-29 -142 0
-29 -143 0
-29 -144 0
-29 -146 0
-29 -149 0
-30 -149 0
-32 -135 0
-32 -136 0
-32 -139 0
-32 -140 0
-32 -141 0
-32 -142 0
-32 -143 0
-32 -144 0
-32 -146 0
-32 -149 0
-33 -149 0
-34 -135 0
-34 -136 0
-34 -139 0
-34 -140 0
-34 -141 0
-34 -142 0
-34 -143 0
-34 -144 0
-34 -146 0
-34 -149 0
-35 -149 0
-36 -135 0
-36 -136 0
-36 -139 0
-36 -140 0
-36 -141 0
-36 -142 0
-36 -143 0
-36 -144 0
-36 -146 0
-36 -149 0
-37 -149 0
-38 -135 0
-38 -136 0
-38 -139 0
-38 -140 0
-38 -141 0
-38 -142 0
-38 -143 0
-38 -144 0
-38 -146 0
-38 -149 0
-39 -149 0
-40 -135 0
-40 -136 0
-40 -139 0
-40 -140 0
-40 -141 0
-40 -142 0
-40 -143 0
-40 -144 0
-40 -146 0
-40 -149 0
-41 -149 0
-41 -135 0
-18 -136 0
-18 -139 0
-18 -140 0
-18 -141 0
-18 -142 0
-18 -143 0
-18 -144 0
-18 -146 0
-18 -150 0
-18 -151 0
-17 -151 0
-19 -151 0
-20 -150 0
-20 -151 0
-21 -151 0
-22 -150 0
-22 -151 0
-23 -151 0
-24 -150 0
-24 -151 0
-25 -151 0
-26 -150 0
-26 -151 0
-27 -151 0
-28 -150 0
-28 -151 0
-29 -151 0
-30 -150 0
-30 -151 0
-32 -151 0
-33 -150 0
-33 -151 0
-34 -151 0
-35 -150 0
-35 -151 0
-36 -151 0
-37 -150 0
-37 -151 0
-38 -151 0
-39 -150 0
-39 -151 0
-40 -151 0
-41 -150 0
-41 -136 0
-41 -139 0
-41 -140 0
-41 -141 0
-41 -142 0
-41 -143 0
-41 -144 0
-41 -146 0
-41 -151 0
-41 -85 0
-17 -91 0
-18 -91 0
-19 -91 0
-20 -91 0
-21 -91 0
-22 -91 0
-23 -91 0
-24 -91 0
-25 -91 0
-26 -91 0
-27 -91 0
-28 -91 0
-29 -91 0
-30 -91 0
-32 -91 0
-33 -91 0
-34 -91 0
-35 -91 0
-36 -91 0
-37 -91 0
-38 -91 0
-39 -91 0
-40 -91 0
-41 -91 0
-41 -98 0
-17 -125 0
-18 -125 0
-19 -125 0
-20 -125 0
-21 -125 0
-22 -125 0
-23 -125 0
-24 -125 0
-25 -125 0
-26 -125 0
-27 -125 0
-28 -125 0
-29 -125 0
-30 -125 0
-32 -125 0
-33 -125 0
-34 -125 0
-35 -125 0
-36 -125 0
-37 -125 0
-38 -125 0
-39 -125 0
-40 -125 0
-41 -125 0
-41 -96 0
-29 -95 0
-1 -95 0
-30 -95 0
-32 -95 0
-33 -95 0
-34 -95 0
-35 -95 0
-36 -95 0
-37 -95 0
-38 -95 0
-39 -95 0
-40 -95 0
-41 -95 0
-41 -90 0
-1 -83 0
-19 -83 0
-21 -83 0
-23 -83 0
-25 -83 0
-26 -83 0
-27 -83 0
-28 -83 0
-29 -83 0
-30 -83 0
-32 -83 0
-33 -83 0
-34 -83 0
-35 -83 0
-36 -83 0
-37 -83 0
-38 -83 0
-39 -83 0
-41 -83 0
-41 -88 0
-24 -141 0
-12 -135 0
-20 -135 0
-22 -101 0
-26 -101 0
-30 -101 0
-33 -101 0
-35 -99 0
-37 -99 0
-39 -99 0
-42 -99 0
-43 -97 0
-44 -97 0
-45 -97 0
-46 -97 0
-47 -97 0
-48 -97 0
-49 -97 0
-50 -97 0
-51 -95 0
